<?xml version = "1.0" encoding="UTF-8" standalone="yes"?>
<CPLEXSolution version="1.2">
 <header
   problemName="TP4"
   solutionName="incumbent"
   solutionIndex="-1"
   objectiveValue="16.344910620872355"
   solutionTypeValue="3"
   solutionTypeString="primal"
   solutionStatusValue="101"
   solutionStatusString="integer optimal solution"
   solutionMethodString="mip"
   primalFeasible="1"
   dualFeasible="1"
   MIPNodes="0"
   MIPIterations="0"
   writeLevel="1"/>
 <quality
   epInt="1.0000000000000001e-05"
   epRHS="9.9999999999999995e-07"
   maxIntInfeas="0"
   maxPrimalInfeas="0"
   maxX="1"
   maxSlack="585"/>
 <linearConstraints>
  <constraint name="capacity_1" index="0" slack="585"/>
 </linearConstraints>
 <variables>
  <variable name="x_j0" index="0" value="0"/>
  <variable name="x_j1" index="1" value="1"/>
  <variable name="x_j2" index="2" value="1"/>
 </variables>
</CPLEXSolution>
